
Log started (V12.10.0.0) Fri Apr  2 10:03:36 2021


Problem 'asset.lp' read.
Read time = 0.01 sec. (0.20 ticks)
New value for default parallel thread count: 1
New value for time limit in seconds: 300
Version identifier: 12.10.0.0 | 2019-11-26 | 843d4de
CPXPARAM_Threads                                 1
CPXPARAM_TimeLimit                               300
Found incumbent of value -0.882649 after 0.00 sec. (0.09 ticks)
Tried aggregator 3 times.
MIP Presolve eliminated 473 rows and 231 columns.
MIP Presolve modified 1659 coefficients.
Aggregator did 612 substitutions.
Reduced MIP has 826 rows, 905 columns, and 3919 nonzeros.
Reduced MIP has 777 binaries, 86 generals, 0 SOSs, and 0 indicators.
Presolve time = 0.01 sec. (8.54 ticks)
Probing fixed 116 vars, tightened 17 bounds.
Probing time = 0.00 sec. (2.91 ticks)
Cover probing fixed 0 vars, tightened 77 bounds.
Tried aggregator 1 time.
MIP Presolve eliminated 158 rows and 155 columns.
MIP Presolve modified 344 coefficients.
Reduced MIP has 668 rows, 750 columns, and 2970 nonzeros.
Reduced MIP has 639 binaries, 69 generals, 0 SOSs, and 0 indicators.
Presolve time = 0.00 sec. (2.87 ticks)
Probing time = 0.00 sec. (1.97 ticks)
Tried aggregator 1 time.
Detecting symmetries...
MIP Presolve modified 106 coefficients.
Reduced MIP has 668 rows, 750 columns, and 2970 nonzeros.
Reduced MIP has 639 binaries, 69 generals, 0 SOSs, and 0 indicators.
Presolve time = 0.00 sec. (2.09 ticks)
Probing time = 0.00 sec. (1.99 ticks)
Clique table members: 1981.
MIP emphasis: balance optimality and feasibility.
MIP search method: dynamic search.
Parallel mode: none, using 1 thread.
Root relaxation solution time = 0.01 sec. (7.32 ticks)

        Nodes                                         Cuts/
   Node  Left     Objective  IInf  Best Integer    Best Bound    ItCnt     Gap

*     0+    0                           -0.8826      502.1974              --- 
      0     0      337.2754   144       -0.8826      337.2754      499     --- 
      0     0      334.4368   144       -0.8826     Cuts: 217      838     --- 
      0     0      333.3256   144       -0.8826     Cuts: 209     1147     --- 
      0     0      331.1074   144       -0.8826     Cuts: 158     1313     --- 
      0     0      330.7712   144       -0.8826      Cuts: 84     1428     --- 
      0     0      330.3023   144       -0.8826      Cuts: 97     1572     --- 
*     0+    0                          290.3163      330.3023            13.77%
Detecting symmetries...
      0     0      330.1531   144      290.3163      Cuts: 77     1660   13.72%
      0     0      330.1521   144      290.3163      Cuts: 79     1713   13.72%
      0     0      330.1130   144      290.3163      Cuts: 37     1755   13.71%
*     0+    0                          290.9027      330.1130            13.48%
      0     0      329.9874   144      290.9027      Cuts: 39     1809   13.44%
      0     0      329.3683   144      290.9027      Cuts: 32     1926   13.22%
      0     0      329.1534   144      290.9027      Cuts: 46     2014   13.15%
      0     0      328.9278   144      290.9027      Cuts: 54     2069   13.07%
      0     0      328.7323   144      290.9027      Cuts: 28     2191   13.00%
      0     0      328.6422   144      290.9027      Cuts: 46     2237   12.97%
*     0+    0                          290.9064      328.6422            12.97%
*     0+    0                          290.9099      328.6422            12.97%
      0     0        cutoff            290.9099      328.6422     2237   12.97%
      0     0      328.6163   144      290.9099      Cuts: 23     2307   12.96%
*     0+    0                          290.9103      328.6163            12.96%
*     0+    0                          290.9103      328.6163            12.96%
*     0+    0                          290.9105      328.6163            12.96%
      0     0        cutoff            290.9105      328.6163     2307   12.96%
Detecting symmetries...
      0     2      328.6163   189      290.9105      328.6088     2307   12.96%
Elapsed time = 0.33 sec. (321.60 ticks, tree = 0.01 MB, solutions = 7)
*   110+   67                          309.2044      328.0832             6.11%
    150    95      320.9094    72      309.2044      327.5094     7186    5.92%
*   180+  103                          312.7233      327.5094             4.73%
    270   169      326.4945   172      312.7233      327.0668    12493    4.59%
*   280+  166                          312.9934      327.0668             4.50%
    382   245      313.0790   147      312.9934      326.8861    18387    4.44%
    485   322      313.2861   159      312.9934      326.6564    23133    4.37%
    584   389      316.6554   145      312.9934      326.3252    29072    4.26%
    671   441      322.2373   171      312.9934      326.1784    34691    4.21%
    770   508      319.4891   146      312.9934      325.7716    40014    4.08%
    847   550      319.1720   138      312.9934      325.3289    45774    3.94%
    940   604      314.2726    89      312.9934      324.9936    50962    3.83%

Performing restart 1

Repeating presolve.
Tried aggregator 2 times.
MIP Presolve eliminated 2 rows and 4 columns.
MIP Presolve modified 457 coefficients.
Aggregator did 1 substitutions.
Reduced MIP has 665 rows, 745 columns, and 2621 nonzeros.
Reduced MIP has 635 binaries, 68 generals, 0 SOSs, and 0 indicators.
Presolve time = 0.00 sec. (2.91 ticks)
Tried aggregator 1 time.
Reduced MIP has 665 rows, 745 columns, and 2621 nonzeros.
Reduced MIP has 635 binaries, 68 generals, 0 SOSs, and 0 indicators.
Presolve time = 0.00 sec. (2.02 ticks)
Represolve time = 0.02 sec. (12.43 ticks)
   1024     0      326.8662   189      312.9934     Cuts: 131    56397    3.72%
   1024     0      326.3522   189      312.9934     Cuts: 138    56577    3.72%
   1024     0      325.4585   189      312.9934     Cuts: 106    56920    3.72%
   1024     0      325.0221   189      312.9934     Cuts: 122    57237    3.72%
   1024     0      324.4640   189      312.9934     Cuts: 175    57521    3.66%
*  1024+    0                          312.9935      324.4640             3.66%
*  1024+    0                          312.9936      324.4640             3.66%
   1024     0        cutoff            312.9936      324.4640    57521    3.66%
   1024     0      324.1866   189      312.9936     Cuts: 109    57838    3.58%
   1024     0      324.0697   189      312.9936     Cuts: 111    57987    3.54%
   1024     0      323.8937   189      312.9936     Cuts: 144    58134    3.48%
   1024     0      323.8320   189      312.9936     Cuts: 122    58253    3.46%
   1024     0      323.7610   189      312.9936      Cuts: 58    58388    3.44%
   1024     0      323.7347   189      312.9936      Cuts: 65    58490    3.43%
   1024     0      323.7191   189      312.9936      Cuts: 35    58556    3.43%
   1024     0      323.6998   189      312.9936      Cuts: 39    58618    3.42%
   1024     0      323.6969   189      312.9936      Cuts: 25    58666    3.42%
*  1024+    0                          312.9936      323.6969             3.42%
*  1024+    0                          312.9941      323.6969             3.42%
   1024     0      323.6578   189      312.9941      Cuts: 29    58781    3.41%
   1024     0      323.6255   189      312.9941      Cuts: 38    58851    3.40%
   1024     0      323.5997   189      312.9941      Cuts: 31    58947    3.39%
   1024     0      323.5650   189      312.9941      Cuts: 51    59023    3.38%
   1024     0      323.5431   189      312.9941      Cuts: 49    59106    3.37%
   1024     0      323.5361   189      312.9941      Cuts: 19    59174    3.37%
   1024     0      323.5038   189      312.9941      Cuts: 29    59220    3.36%
   1024     2      323.5038   175      312.9941      323.5018    59220    3.36%
Elapsed time = 4.38 sec. (4719.06 ticks, tree = 0.01 MB, solutions = 14)
*  1054+   20                          312.9941      323.1653             3.25%
   1089    42      321.8084   152      312.9941      322.2946    61827    2.97%
*  1154+   30                          313.9634      321.1871             2.30%
   1202    35        cutoff            313.9634      317.0088    71350    0.97%

GUB cover cuts applied:  2
Clique cuts applied:  80
Cover cuts applied:  4
Implied bound cuts applied:  10
Flow cuts applied:  13
Mixed integer rounding cuts applied:  59
Zero-half cuts applied:  46
Lift and project cuts applied:  18
Gomory fractional cuts applied:  6

Root node processing (before b&c):
  Real time             =    0.33 sec. (321.82 ticks)
Sequential b&c:
  Real time             =    5.60 sec. (6402.64 ticks)
                          ------------
Total (root+branch&cut) =    5.93 sec. (6724.47 ticks)

Solution pool: 17 solutions saved.

MIP - Integer optimal, tolerance (0.0001/1e-06):  Objective =  3.1396344319e+02
Current MIP best bound =  3.1397109741e+02 (gap = 0.00765422, 0.00%)
Solution time =    5.93 sec.  Iterations = 72123  Nodes = 1219 (22)
Deterministic time = 6724.47 ticks  (1134.50 ticks/sec)


Incumbent solution
Variable Name           Solution Value
F                           340.000000
f1                            0.916557
f2                           25.120000
y70                           1.000000
y95                           1.000000
y150                          1.000000
y222                          1.000000
y228                          1.000000
y267                          1.000000
y271                          1.000000
y214                          1.000000
y87                           1.000000
y158                          1.000000
y51                           1.000000
y301                          1.000000
y56                           1.000000
y281                          1.000000
y187                          1.000000
y178                          1.000000
y93                           1.000000
y306                          1.000000
y198                          1.000000
y5                            1.000000
s1                            6.000000
s17                           6.000000
s27                           6.000000
s30                           6.000000
s61                           6.000000
s70                           6.241973
s74                           6.000000
s95                           6.091691
s109                          6.000000
s113                          6.000000
s121                          6.000000
s122                          6.000000
s150                          6.200894
s176                          6.000000
s185                          6.000000
s210                          6.000000
s222                          6.273240
s226                          6.000000
s228                          6.320026
s267                          6.260811
s271                          6.313540
s212                          6.020000
s149                          6.130000
s151                          6.180000
s21                           6.370000
s118                          6.390000
s299                          6.400000
s251                          6.420000
s214                          6.637091
s238                          6.470000
s87                           6.700985
s158                          7.131957
s51                           7.499603
s301                          7.534226
s56                           7.521879
s246                          6.660000
s281                          7.443743
s187                          7.790428
s178                          7.410125
s93                           7.890951
s306                          7.546399
s198                          7.518241
s54                           7.010000
s5                            7.938274
x95x51x1                      1.000000
x34x95x1                      1.000000
x266x87x1                     1.000000
x143x70x1                     1.000000
x143x281x1                    1.000000
x146x271x1                    1.000000
x38x70x1                      1.000000
x38x150x1                     1.000000
x276x158x2                    1.000000
x289x150x2                    1.000000
x223x222x2                    1.000000
x223x267x2                    1.000000
x4x267x2                      1.000000
x266x228x2                    1.000000
x292x228x2                    1.000000
x146x222x2                    1.000000
x95x56x3                      1.000000
x276x158x3                    1.000000
x4x271x3                      1.000000
x34x95x3                      1.000000
x291x214x3                    2.000000
x292x87x3                     1.000000
x70x281x1                     1.000000
x70x187x1                     1.000000
x150x178x1                    1.000000
x150x178x2                    1.000000
x222x306x2                    1.000000
x222x198x2                    1.000000
x228x306x2                    1.000000
x228x198x2                    1.000000
x267x301x2                    1.000000
x267x93x2                     1.000000
x271x5x1                      1.000000
x271x301x3                    1.000000
x214x93x3                     1.000000
x214x5x3                      1.000000
x87x0x1                       1.000000
x87x187x3                     1.000000
x158x0x2                      1.000000
x158x0x3                      1.000000
x51x0x1                       2.000000
x301x0x2                      1.000000
x301x0x3                      1.000000
x56x0x3                       2.000000
x281x0x1                      2.000000
x187x0x1                      1.000000
x187x0x3                      1.000000
x178x0x1                      1.000000
x178x0x2                      1.000000
x93x0x2                       1.000000
x93x0x3                       1.000000
x306x0x2                      2.000000
x198x0x2                      2.000000
x5x0x1                        1.000000
x5x0x3                        1.000000
z95z51z1                      1.000000
z95z56z3                      1.000000
s276                          5.956226
z276z158z2                    1.000000
z276z158z3                    1.000000
s289                          4.640660
z289z150z2                    1.000000
z289z306z2                    1.000000
z289z198z2                    1.000000
s223                          4.783950
z223z222z2                    1.000000
z223z267z2                    1.000000
z223z306z2                    1.000000
z223z198z2                    1.000000
s4                            4.832210
z4z267z2                      1.000000
z4z271z3                      1.000000
z4z56z3                       1.000000
z4z306z2                      1.000000
z4z198z2                      1.000000
z4z54z3                       1.000000
s34                           4.783530
z34z95z1                      1.000000
z34z95z3                      1.000000
z34z238z1                     1.000000
z34z51z1                      1.000000
z34z56z3                      1.000000
z34z281z1                     1.000000
z34z54z3                      1.000000
s266                          4.917480
z266z228z2                    1.000000
z266z87z1                     1.000000
z266z281z1                    1.000000
z266z306z2                    1.000000
z266z198z2                    1.000000
s291                          4.949130
z291z214z3                    1.000000
z291z54z3                     1.000000
s143                          4.936570
z143z70z1                     1.000000
z143z281z1                    1.000000
s292                          5.014090
z292z228z2                    1.000000
z292z87z3                     1.000000
z292z306z2                    1.000000
z292z198z2                    1.000000
z292z54z3                     1.000000
s146                          4.825900
z146z222z2                    1.000000
z146z271z1                    1.000000
z146z51z1                     1.000000
z146z281z1                    1.000000
z146z306z2                    1.000000
z146z198z2                    1.000000
s38                           4.828870
z38z70z1                      1.000000
z38z150z1                     1.000000
z38z51z1                      1.000000
z38z281z1                     1.000000
z70z281z1                     1.000000
z70z187z1                     1.000000
z150z178z1                    1.000000
z150z178z2                    1.000000
z222z306z2                    1.000000
z222z198z2                    1.000000
z228z306z2                    1.000000
z228z198z2                    1.000000
z267z301z2                    1.000000
z267z93z2                     1.000000
z271z301z3                    1.000000
z271z5z1                      1.000000
z214z93z3                     1.000000
z214z5z3                      1.000000
z87z187z3                     1.000000
All other variables in the range 1-1751 are 0.
